9
0 15 29 56 28 46 14 41 15 
15 0 36 49 25 33 23 31 15 
29 36 0 44 21 52 15 40 22 
56 49 44 0 28 31 49 21 40 
28 25 21 28 0 31 21 20 12 
46 33 52 31 31 0 48 13 35 
14 23 15 49 21 48 0 38 12 
41 31 40 21 20 13 38 0 27 
15 15 22 40 12 35 12 27 0 
